\ENCODING=ISO-8859-1
\Problem name: ilog.cplex

Minimize
 obj1: 104409 x1 + 104460 x2 + 108320 x3 + 105494 x4 + 103463 x5 + 92977 x6
       + 95000 x7 + 91725 x8 + 93801 x9 + 105450 x10 + 105795 x11 + 97856 x12
       + 102110 x13 + 92578 x14 + 94683 x15 + 92303 x16 + 101273 x17
       + 97096 x18 + 104741 x19 + 99095 x20 + 96884 x21 + 109067 x22
       + 93067 x23 + 108949 x24 + 103735 x25 + 102837 x26 + 99265 x27
       + 101593 x28 + 109643 x29 + 98361 x30 + 107172 x31 + 104202 x32
       + 103797 x33 + 105282 x34 + 102216 x35 + 91719 x36 + 97340 x37
       + 99387 x38 + 100073 x39 + 101459 x40 + 104997 x41 + 107971 x42
       + 96229 x43 + 106561 x44 + 108274 x45 + 103157 x46 + 100578 x47
       + 90736 x48 + 103174 x49 + 100369 x50 + 92915 x51 + 98939 x52
       + 97399 x53 + 92810 x54 + 103037 x55 + 104771 x56 + 97340 x57
       + 98211 x58 + 94814 x59 + 101202 x60 + 104567 x61 + 92174 x62
       + 94925 x63 + 101329 x64 + 98699 x65 + 108915 x66 + 103576 x67
       + 109744 x68 + 104893 x69 + 96092 x70 + 109762 x71 + 102240 x72
       + 104353 x73 + 105259 x74 + 92585 x75 + 102606 x76 + 102419 x77
       + 90178 x78 + 93466 x79 + 99752 x80 + 90248 x81 + 95302 x82 + 102868 x83
       + 109172 x84 + 90222 x85 + 105342 x86 + 99558 x87 + 104234 x88
       + 94879 x89 + 106077 x90 + 90419 x91 + 104789 x92 + 94540 x93
       + 96422 x94 + 104510 x95 + 93289 x96 + 99730 x97 + 92272 x98 + 96312 x99
       + 91906 x100 + 98056 x101 + 91643 x102 + 109137 x103 + 109069 x104
       + 100301 x105 + 104254 x106 + 101443 x107 + 103965 x108 + 101762 x109
       + 90290 x110 + 105952 x111 + 93725 x112 + 103981 x113 + 104929 x114
       + 101435 x115 + 97582 x116 + 90611 x117 + 108982 x118 + 101380 x119
       + 107043 x120 + 97330 x121 + 107581 x122 + 106729 x123 + 99838 x124
       + 102091 x125 + 101988 x126 + 107035 x127 + 103338 x128 + 98087 x129
       + 92369 x130 + 93059 x131 + 96928 x132 + 100761 x133 + 96594 x134
       + 90586 x135 + 100366 x136 + 109725 x137 + 102946 x138 + 102570 x139
       + 108275 x140 + 96624 x141 + 93082 x142 + 94745 x143 + 99719 x144
       + 100821 x145 + 95674 x146 + 98420 x147 + 96162 x148 + 106132 x149
       + 100856 x150 + 100950 x151 + 94113 x152 + 90936 x153 + 100925 x154
       + 103891 x155 + 91507 x156 + 95545 x157 + 101903 x158 + 92342 x159
       + 106411 x160 + 98734 x161 + 94375 x162 + 93732 x163 + 99284 x164
       + 105204 x165 + 93174 x166 + 104241 x167 + 105622 x168 + 103683 x169
       + 101005 x170 + 93235 x171 + 98316 x172 + 107193 x173 + 95337 x174
       + 103743 x175 + 102124 x176 + 101523 x177 + 108878 x178 + 99250 x179
       + 99630 x180 + 97917 x181 + 107856 x182 + 107441 x183 + 92936 x184
       + 106613 x185 + 90015 x186 + 97459 x187 + 100816 x188 + 104152 x189
       + 102522 x190 + 98851 x191 + 97160 x192 + 99273 x193 + 98935 x194
       + 107561 x195 + 93297 x196 + 109715 x197 + 93890 x198 + 107167 x199
       + 94140 x200 + 96075 x201 + 92280 x202 + 107328 x203 + 93044 x204
       + 103146 x205 + 105364 x206 + 104364 x207 + 106575 x208 + 97312 x209
       + 109784 x210 + 107249 x211 + 92122 x212 + 108427 x213 + 94007 x214
       + 99442 x215 + 95683 x216 + 90064 x217 + 100874 x218 + 93113 x219
       + 91987 x220 + 98452 x221 + 98905 x222 + 104581 x223 + 101175 x224
       + 93485 x225 + 108853 x226 + 95765 x227 + 103269 x228 + 93170 x229
       + 108640 x230 + 104415 x231 + 97243 x232 + 95847 x233 + 103576 x234
       + 91701 x235 + 90594 x236 + 98118 x237 + 108159 x238 + 102125 x239
       + 90011 x240 + 100695 x241 + 100754 x242 + 97828 x243 + 94076 x244
       + 109200 x245 + 103137 x246 + 96983 x247 + 104884 x248 + 102463 x249
       + 81377 x250 + 20686 x251 + 21501 x252 + 18471 x253 + 21175 x254
       + 18611 x255 + 19435 x256 + 19596 x257 + 18758 x258 + 19117 x259
       + 19276 x260 + 19642 x261 + 21845 x262 + 19766 x263 + 21213 x264
       + 21846 x265 + 18373 x266 + 20765 x267 + 19324 x268 + 20658 x269
       + 18833 x270 + 19104 x271 + 20554 x272 + 21029 x273 + 18168 x274
       + 18682 x275 + 19583 x276 + 19427 x277 + 18240 x278 + 19321 x279
       + 21100 x280 + 19844 x281 + 21846 x282 + 21625 x283 + 18513 x284
       + 19307 x285 + 20474 x286 + 18085 x287 + 20031 x288 + 20016 x289
       + 19583 x290 + 21648 x291 + 19361 x292 + 21265 x293 + 21180 x294
       + 19157 x295 + 18905 x296 + 21658 x297 + 21795 x298 + 20637 x299
       + 20971 x300
Subject To
 c1:   x6 - x18 - x22 + x28 - x39  = 0
 c2:   x56 - x68 - x72 + x78 - x89  = 1
 c3:   x106 - x118 - x122 + x128 - x139  = 0
 c4:   x156 - x168 - x172 + x178 - x189  = 0
 c5:   x206 - x218 - x222 + x228 - x239  = 0
 c6:   - x1 + x8 - x20 - x21 + x22 + x26 - x31 + x44  = 0
 c7:   - x51 + x58 - x70 - x71 + x72 + x76 - x81 + x94  = 0
 c8:   - x101 + x108 - x120 - x121 + x122 + x126 - x131 + x144  = 0
 c9:   - x151 + x158 - x170 - x171 + x172 + x176 - x181 + x194  = 0
 c10:  - x201 + x208 - x220 - x221 + x222 + x226 - x231 + x244  = 0
 c11:  x2 - x13 + x17 + x19 - x24 - x38  = 0
 c12:  x52 - x63 + x67 + x69 - x74 - x88  = 0
 c13:  x102 - x113 + x117 + x119 - x124 - x138  = 1
 c14:  x152 - x163 + x167 + x169 - x174 - x188  = 0
 c15:  x202 - x213 + x217 + x219 - x224 - x238  = 0
 c16:  x7 + x12 - x14 + x23 + x25 - x26  = 0
 c17:  x57 + x62 - x64 + x73 + x75 - x76  = 0
 c18:  x107 + x112 - x114 + x123 + x125 - x126  = 0
 c19:  x157 + x162 - x164 + x173 + x175 - x176  = 0
 c20:  x207 + x212 - x214 + x223 + x225 - x226  = 1
 c21:  x3 - x19 + x21 + x30 + x36 + x38 - x46 - x47  = 0
 c22:  x53 - x69 + x71 + x80 + x86 + x88 - x96 - x97  = 0
 c23:  x103 - x119 + x121 + x130 + x136 + x138 - x146 - x147  = 0
 c24:  x153 - x169 + x171 + x180 + x186 + x188 - x196 - x197  = 0
 c25:  x203 - x219 + x221 + x230 + x236 + x238 - x246 - x247  = 0
 c26:  x5 + x13 + x15 - x27 - x28 + x31 - x35 - x37 - x43 + x45  = -1
 c27:  x55 + x63 + x65 - x77 - x78 + x81 - x85 - x87 - x93 + x95  = 0
 c28:  x105 + x113 + x115 - x127 - x128 + x131 - x135 - x137 - x143 + x145  = 0
 c29:  x155 + x163 + x165 - x177 - x178 + x181 - x185 - x187 - x193 + x195  = 0
 c30:  x205 + x213 + x215 - x227 - x228 + x231 - x235 - x237 - x243 + x245  = 0
 c31:  - x6 - x9 - x16 + x27 + x29 - x32 - x34 + x39 + x46 + x48  = 0
 c32:  - x56 - x59 - x66 + x77 + x79 - x82 - x84 + x89 + x96 + x98  = 0
 c33:  - x106 - x109 - x116 + x127 + x129 - x132 - x134 + x139 + x146 + x148
        = 0
 c34:  - x156 - x159 - x166 + x177 + x179 - x182 - x184 + x189 + x196 + x198
        = 0
 c35:  - x206 - x209 - x216 + x227 + x229 - x232 - x234 + x239 + x246 + x248
        = 0
 c36:  - x10 + x11 - x12 + x18 + x33 + x34 - x41 - x44  = 0
 c37:  - x60 + x61 - x62 + x68 + x83 + x84 - x91 - x94  = 0
 c38:  - x110 + x111 - x112 + x118 + x133 + x134 - x141 - x144  = 0
 c39:  - x160 + x161 - x162 + x168 + x183 + x184 - x191 - x194  = 0
 c40:  - x210 + x211 - x212 + x218 + x233 + x234 - x241 - x244  = 0
 c41:  x4 + x24 + x32 - x40 + x41 + x43  = 1
 c42:  x54 + x74 + x82 - x90 + x91 + x93  = 0
 c43:  x104 + x124 + x132 - x140 + x141 + x143  = 0
 c44:  x154 + x174 + x182 - x190 + x191 + x193  = 1
 c45:  x204 + x224 + x232 - x240 + x241 + x243  = 0
 c46:  - x17 + x20 - x23 - x33 + x40 - x42 + x49  = 0
 c47:  - x67 + x70 - x73 - x83 + x90 - x92 + x99  = 0
 c48:  - x117 + x120 - x123 - x133 + x140 - x142 + x149  = 0
 c49:  - x167 + x170 - x173 - x183 + x190 - x192 + x199  = 0
 c50:  - x217 + x220 - x223 - x233 + x240 - x242 + x249  = -1
 c51:  - x5 - x8 + x10 + x16 + x35 + x42  = 0
 c52:  - x55 - x58 + x60 + x66 + x85 + x92  = 0
 c53:  - x105 - x108 + x110 + x116 + x135 + x142  = 0
 c54:  - x155 - x158 + x160 + x166 + x185 + x192  = -1
 c55:  - x205 - x208 + x210 + x216 + x235 + x242  = 0
 c56:  x1 - x3 - x4 - x11 + x14 - x25 - x45 + x50  = 0
 c57:  x51 - x53 - x54 - x61 + x64 - x75 - x95 + x100  = 0
 c58:  x101 - x103 - x104 - x111 + x114 - x125 - x145 + x150  = 0
 c59:  x151 - x153 - x154 - x161 + x164 - x175 - x195 + x200  = 0
 c60:  x201 - x203 - x204 - x211 + x214 - x225 - x245 + x250  = 0
 c61:  - x7 + x9 - x29 - x30 - x50  = 0
 c62:  - x57 + x59 - x79 - x80 - x100  = 0
 c63:  - x107 + x109 - x129 - x130 - x150  = 0
 c64:  - x157 + x159 - x179 - x180 - x200  = 0
 c65:  - x207 + x209 - x229 - x230 - x250  = 0
 c66:  - x2 - x36 - x48  = 0
 c67:  - x52 - x86 - x98  = -1
 c68:  - x102 - x136 - x148  = 0
 c69:  - x152 - x186 - x198  = 0
 c70:  - x202 - x236 - x248  = 0
 c71:  - x15 + x37 + x47 - x49  = 0
 c72:  - x65 + x87 + x97 - x99  = 0
 c73:  - x115 + x137 + x147 - x149  = -1
 c74:  - x165 + x187 + x197 - x199  = 0
 c75:  - x215 + x237 + x247 - x249  = 0
 c76:  4 x1 + 4 x51 + 4 x101 + 4 x151 + 4 x201 - 11 x251 <= 0
 c77:  4 x2 + 4 x52 + 4 x102 + 4 x152 + 4 x202 - 10 x252 <= 0
 c78:  4 x3 + 4 x53 + 4 x103 + 4 x153 + 4 x203 - 9 x253 <= 0
 c79:  4 x4 + 4 x54 + 4 x104 + 4 x154 + 4 x204 - 10 x254 <= 0
 c80:  4 x5 + 4 x55 + 4 x105 + 4 x155 + 4 x205 - 10 x255 <= 0
 c81:  4 x6 + 4 x56 + 4 x106 + 4 x156 + 4 x206 - 9 x256 <= 0
 c82:  4 x7 + 4 x57 + 4 x107 + 4 x157 + 4 x207 - 10 x257 <= 0
 c83:  4 x8 + 4 x58 + 4 x108 + 4 x158 + 4 x208 - 11 x258 <= 0
 c84:  4 x9 + 4 x59 + 4 x109 + 4 x159 + 4 x209 - 10 x259 <= 0
 c85:  4 x10 + 4 x60 + 4 x110 + 4 x160 + 4 x210 - 10 x260 <= 0
 c86:  4 x11 + 4 x61 + 4 x111 + 4 x161 + 4 x211 - 11 x261 <= 0
 c87:  4 x12 + 4 x62 + 4 x112 + 4 x162 + 4 x212 - 10 x262 <= 0
 c88:  4 x13 + 4 x63 + 4 x113 + 4 x163 + 4 x213 - 11 x263 <= 0
 c89:  4 x14 + 4 x64 + 4 x114 + 4 x164 + 4 x214 - 9 x264 <= 0
 c90:  4 x15 + 4 x65 + 4 x115 + 4 x165 + 4 x215 - 10 x265 <= 0
 c91:  4 x16 + 4 x66 + 4 x116 + 4 x166 + 4 x216 - 10 x266 <= 0
 c92:  4 x17 + 4 x67 + 4 x117 + 4 x167 + 4 x217 - 10 x267 <= 0
 c93:  4 x18 + 4 x68 + 4 x118 + 4 x168 + 4 x218 - 11 x268 <= 0
 c94:  4 x19 + 4 x69 + 4 x119 + 4 x169 + 4 x219 - 10 x269 <= 0
 c95:  4 x20 + 4 x70 + 4 x120 + 4 x170 + 4 x220 - 10 x270 <= 0
 c96:  4 x21 + 4 x71 + 4 x121 + 4 x171 + 4 x221 - 10 x271 <= 0
 c97:  4 x22 + 4 x72 + 4 x122 + 4 x172 + 4 x222 - 11 x272 <= 0
 c98:  4 x23 + 4 x73 + 4 x123 + 4 x173 + 4 x223 - 10 x273 <= 0
 c99:  4 x24 + 4 x74 + 4 x124 + 4 x174 + 4 x224 - 11 x274 <= 0
 c100: 4 x25 + 4 x75 + 4 x125 + 4 x175 + 4 x225 - 10 x275 <= 0
 c101: 4 x26 + 4 x76 + 4 x126 + 4 x176 + 4 x226 - 10 x276 <= 0
 c102: 4 x27 + 4 x77 + 4 x127 + 4 x177 + 4 x227 - 10 x277 <= 0
 c103: 4 x28 + 4 x78 + 4 x128 + 4 x178 + 4 x228 - 9 x278 <= 0
 c104: 4 x29 + 4 x79 + 4 x129 + 4 x179 + 4 x229 - 9 x279 <= 0
 c105: 4 x30 + 4 x80 + 4 x130 + 4 x180 + 4 x230 - 10 x280 <= 0
 c106: 4 x31 + 4 x81 + 4 x131 + 4 x181 + 4 x231 - 11 x281 <= 0
 c107: 4 x32 + 4 x82 + 4 x132 + 4 x182 + 4 x232 - 10 x282 <= 0
 c108: 4 x33 + 4 x83 + 4 x133 + 4 x183 + 4 x233 - 10 x283 <= 0
 c109: 4 x34 + 4 x84 + 4 x134 + 4 x184 + 4 x234 - 10 x284 <= 0
 c110: 4 x35 + 4 x85 + 4 x135 + 4 x185 + 4 x235 - 11 x285 <= 0
 c111: 4 x36 + 4 x86 + 4 x136 + 4 x186 + 4 x236 - 10 x286 <= 0
 c112: 4 x37 + 4 x87 + 4 x137 + 4 x187 + 4 x237 - 11 x287 <= 0
 c113: 4 x38 + 4 x88 + 4 x138 + 4 x188 + 4 x238 - 10 x288 <= 0
 c114: 4 x39 + 4 x89 + 4 x139 + 4 x189 + 4 x239 - 10 x289 <= 0
 c115: 4 x40 + 4 x90 + 4 x140 + 4 x190 + 4 x240 - 9 x290 <= 0
 c116: 4 x41 + 4 x91 + 4 x141 + 4 x191 + 4 x241 - 9 x291 <= 0
 c117: 4 x42 + 4 x92 + 4 x142 + 4 x192 + 4 x242 - 10 x292 <= 0
 c118: 4 x43 + 4 x93 + 4 x143 + 4 x193 + 4 x243 - 10 x293 <= 0
 c119: 4 x44 + 4 x94 + 4 x144 + 4 x194 + 4 x244 - 11 x294 <= 0
 c120: 4 x45 + 4 x95 + 4 x145 + 4 x195 + 4 x245 - 10 x295 <= 0
 c121: 4 x46 + 4 x96 + 4 x146 + 4 x196 + 4 x246 - 10 x296 <= 0
 c122: 4 x47 + 4 x97 + 4 x147 + 4 x197 + 4 x247 - 9 x297 <= 0
 c123: 4 x48 + 4 x98 + 4 x148 + 4 x198 + 4 x248 - 10 x298 <= 0
 c124: 4 x49 + 4 x99 + 4 x149 + 4 x199 + 4 x249 - 9 x299 <= 0
 c125: 4 x50 + 4 x100 + 4 x150 + 4 x200 + 4 x250 - 8 x300 <= 0
Bounds
 0 <= x1 <= 1
 0 <= x2 <= 1
 0 <= x3 <= 1
 0 <= x4 <= 1
 0 <= x5 <= 1
 0 <= x6 <= 1
 0 <= x7 <= 1
 0 <= x8 <= 1
 0 <= x9 <= 1
 0 <= x10 <= 1
 0 <= x11 <= 1
 0 <= x12 <= 1
 0 <= x13 <= 1
 0 <= x14 <= 1
 0 <= x15 <= 1
 0 <= x16 <= 1
 0 <= x17 <= 1
 0 <= x18 <= 1
 0 <= x19 <= 1
 0 <= x20 <= 1
 0 <= x21 <= 1
 0 <= x22 <= 1
 0 <= x23 <= 1
 0 <= x24 <= 1
 0 <= x25 <= 1
 0 <= x26 <= 1
 0 <= x27 <= 1
 0 <= x28 <= 1
 0 <= x29 <= 1
 0 <= x30 <= 1
 0 <= x31 <= 1
 0 <= x32 <= 1
 0 <= x33 <= 1
 0 <= x34 <= 1
 0 <= x35 <= 1
 0 <= x36 <= 1
 0 <= x37 <= 1
 0 <= x38 <= 1
 0 <= x39 <= 1
 0 <= x40 <= 1
 0 <= x41 <= 1
 0 <= x42 <= 1
 0 <= x43 <= 1
 0 <= x44 <= 1
 0 <= x45 <= 1
 0 <= x46 <= 1
 0 <= x47 <= 1
 0 <= x48 <= 1
 0 <= x49 <= 1
 0 <= x50 <= 1
 0 <= x51 <= 1
 0 <= x52 <= 1
 0 <= x53 <= 1
 0 <= x54 <= 1
 0 <= x55 <= 1
 0 <= x56 <= 1
 0 <= x57 <= 1
 0 <= x58 <= 1
 0 <= x59 <= 1
 0 <= x60 <= 1
 0 <= x61 <= 1
 0 <= x62 <= 1
 0 <= x63 <= 1
 0 <= x64 <= 1
 0 <= x65 <= 1
 0 <= x66 <= 1
 0 <= x67 <= 1
 0 <= x68 <= 1
 0 <= x69 <= 1
 0 <= x70 <= 1
 0 <= x71 <= 1
 0 <= x72 <= 1
 0 <= x73 <= 1
 0 <= x74 <= 1
 0 <= x75 <= 1
 0 <= x76 <= 1
 0 <= x77 <= 1
 0 <= x78 <= 1
 0 <= x79 <= 1
 0 <= x80 <= 1
 0 <= x81 <= 1
 0 <= x82 <= 1
 0 <= x83 <= 1
 0 <= x84 <= 1
 0 <= x85 <= 1
 0 <= x86 <= 1
 0 <= x87 <= 1
 0 <= x88 <= 1
 0 <= x89 <= 1
 0 <= x90 <= 1
 0 <= x91 <= 1
 0 <= x92 <= 1
 0 <= x93 <= 1
 0 <= x94 <= 1
 0 <= x95 <= 1
 0 <= x96 <= 1
 0 <= x97 <= 1
 0 <= x98 <= 1
 0 <= x99 <= 1
 0 <= x100 <= 1
 0 <= x101 <= 1
 0 <= x102 <= 1
 0 <= x103 <= 1
 0 <= x104 <= 1
 0 <= x105 <= 1
 0 <= x106 <= 1
 0 <= x107 <= 1
 0 <= x108 <= 1
 0 <= x109 <= 1
 0 <= x110 <= 1
 0 <= x111 <= 1
 0 <= x112 <= 1
 0 <= x113 <= 1
 0 <= x114 <= 1
 0 <= x115 <= 1
 0 <= x116 <= 1
 0 <= x117 <= 1
 0 <= x118 <= 1
 0 <= x119 <= 1
 0 <= x120 <= 1
 0 <= x121 <= 1
 0 <= x122 <= 1
 0 <= x123 <= 1
 0 <= x124 <= 1
 0 <= x125 <= 1
 0 <= x126 <= 1
 0 <= x127 <= 1
 0 <= x128 <= 1
 0 <= x129 <= 1
 0 <= x130 <= 1
 0 <= x131 <= 1
 0 <= x132 <= 1
 0 <= x133 <= 1
 0 <= x134 <= 1
 0 <= x135 <= 1
 0 <= x136 <= 1
 0 <= x137 <= 1
 0 <= x138 <= 1
 0 <= x139 <= 1
 0 <= x140 <= 1
 0 <= x141 <= 1
 0 <= x142 <= 1
 0 <= x143 <= 1
 0 <= x144 <= 1
 0 <= x145 <= 1
 0 <= x146 <= 1
 0 <= x147 <= 1
 0 <= x148 <= 1
 0 <= x149 <= 1
 0 <= x150 <= 1
 0 <= x151 <= 1
 0 <= x152 <= 1
 0 <= x153 <= 1
 0 <= x154 <= 1
 0 <= x155 <= 1
 0 <= x156 <= 1
 0 <= x157 <= 1
 0 <= x158 <= 1
 0 <= x159 <= 1
 0 <= x160 <= 1
 0 <= x161 <= 1
 0 <= x162 <= 1
 0 <= x163 <= 1
 0 <= x164 <= 1
 0 <= x165 <= 1
 0 <= x166 <= 1
 0 <= x167 <= 1
 0 <= x168 <= 1
 0 <= x169 <= 1
 0 <= x170 <= 1
 0 <= x171 <= 1
 0 <= x172 <= 1
 0 <= x173 <= 1
 0 <= x174 <= 1
 0 <= x175 <= 1
 0 <= x176 <= 1
 0 <= x177 <= 1
 0 <= x178 <= 1
 0 <= x179 <= 1
 0 <= x180 <= 1
 0 <= x181 <= 1
 0 <= x182 <= 1
 0 <= x183 <= 1
 0 <= x184 <= 1
 0 <= x185 <= 1
 0 <= x186 <= 1
 0 <= x187 <= 1
 0 <= x188 <= 1
 0 <= x189 <= 1
 0 <= x190 <= 1
 0 <= x191 <= 1
 0 <= x192 <= 1
 0 <= x193 <= 1
 0 <= x194 <= 1
 0 <= x195 <= 1
 0 <= x196 <= 1
 0 <= x197 <= 1
 0 <= x198 <= 1
 0 <= x199 <= 1
 0 <= x200 <= 1
 0 <= x201 <= 1
 0 <= x202 <= 1
 0 <= x203 <= 1
 0 <= x204 <= 1
 0 <= x205 <= 1
 0 <= x206 <= 1
 0 <= x207 <= 1
 0 <= x208 <= 1
 0 <= x209 <= 1
 0 <= x210 <= 1
 0 <= x211 <= 1
 0 <= x212 <= 1
 0 <= x213 <= 1
 0 <= x214 <= 1
 0 <= x215 <= 1
 0 <= x216 <= 1
 0 <= x217 <= 1
 0 <= x218 <= 1
 0 <= x219 <= 1
 0 <= x220 <= 1
 0 <= x221 <= 1
 0 <= x222 <= 1
 0 <= x223 <= 1
 0 <= x224 <= 1
 0 <= x225 <= 1
 0 <= x226 <= 1
 0 <= x227 <= 1
 0 <= x228 <= 1
 0 <= x229 <= 1
 0 <= x230 <= 1
 0 <= x231 <= 1
 0 <= x232 <= 1
 0 <= x233 <= 1
 0 <= x234 <= 1
 0 <= x235 <= 1
 0 <= x236 <= 1
 0 <= x237 <= 1
 0 <= x238 <= 1
 0 <= x239 <= 1
 0 <= x240 <= 1
 0 <= x241 <= 1
 0 <= x242 <= 1
 0 <= x243 <= 1
 0 <= x244 <= 1
 0 <= x245 <= 1
 0 <= x246 <= 1
 0 <= x247 <= 1
 0 <= x248 <= 1
 0 <= x249 <= 1
 0 <= x250 <= 1
 0 <= x251 <= 1
 0 <= x252 <= 1
 0 <= x253 <= 1
 0 <= x254 <= 1
 0 <= x255 <= 1
 0 <= x256 <= 1
 0 <= x257 <= 1
 0 <= x258 <= 1
 0 <= x259 <= 1
 0 <= x260 <= 1
 0 <= x261 <= 1
 0 <= x262 <= 1
 0 <= x263 <= 1
 0 <= x264 <= 1
 0 <= x265 <= 1
 0 <= x266 <= 1
 0 <= x267 <= 1
 0 <= x268 <= 1
 0 <= x269 <= 1
 0 <= x270 <= 1
 0 <= x271 <= 1
 0 <= x272 <= 1
 0 <= x273 <= 1
 0 <= x274 <= 1
 0 <= x275 <= 1
 0 <= x276 <= 1
 0 <= x277 <= 1
 0 <= x278 <= 1
 0 <= x279 <= 1
 0 <= x280 <= 1
 0 <= x281 <= 1
 0 <= x282 <= 1
 0 <= x283 <= 1
 0 <= x284 <= 1
 0 <= x285 <= 1
 0 <= x286 <= 1
 0 <= x287 <= 1
 0 <= x288 <= 1
 0 <= x289 <= 1
 0 <= x290 <= 1
 0 <= x291 <= 1
 0 <= x292 <= 1
 0 <= x293 <= 1
 0 <= x294 <= 1
 0 <= x295 <= 1
 0 <= x296 <= 1
 0 <= x297 <= 1
 0 <= x298 <= 1
 0 <= x299 <= 1
 0 <= x300 <= 1
Binaries
 x251  x252  x253  x254  x255  x256  x257  x258  x259  x260  x261  x262  x263 
 x264  x265  x266  x267  x268  x269  x270  x271  x272  x273  x274  x275  x276 
 x277  x278  x279  x280  x281  x282  x283  x284  x285  x286  x287  x288  x289 
 x290  x291  x292  x293  x294  x295  x296  x297  x298  x299  x300 
End
